928685
40 18 18404
18 27 12606
27 2 15288
2 21 11546
21 7 17005
7 1 18909
1 10 6947
10 11 5506
11 35 5412
35 16 56496
16 3 71701
3 14 30026
14 17 42391
17 15 45489
15 8 26227
8 9 54349
9 6 47658
6 36 22446
36 13 26785
13 28 6411
28 29 17517
29 38 745
38 23 7449
23 34 31609
34 25 30137
25 31 7859
31 39 9087
39 30 6375
30 37 941
37 26 14546
26 33 15458
33 12 3967
12 5 38538
5 32 3290
32 20 24202
20 24 65657
24 22 45980
22 4 23621
4 19 26533
19 40 13572
